NAME : tsp40_8.219.tour
COMMENT : Length = 219
COMMENT : Found by LKH [Keld Helsgaun]
TYPE : TOUR
DIMENSION : 40
TOUR_SECTION
1
6
30
12
4
3
28
2
18
40
36
7
26
16
25
21
8
10
14
11
13
32
31
24
38
5
17
19
20
22
23
9
37
33
29
34
35
39
27
15
-1
EOF
